(set-logic HORN)
(set-info :source |
    Benchmark: C_VC
    Output by Princess (http://www.philipp.ruemmer.org/princess.shtml)
|)
(set-info :status sat)
(declare-heap Heap Addr HeapObject
 defObj
 ((HeapObject 0)) (
  (
   (O_Int (getInt Int))
   (O_UInt (getUInt Int))
   (O_Addr (getAddr Addr))
   (defObj)
  )
))
(declare-fun inv_main11 (Heap AddrRange AddrRange Int) Bool)
(declare-fun inv_main13 (Heap AddrRange AddrRange Int Int) Bool)
(declare-fun inv_main16 (Heap AddrRange AddrRange Int) Bool)
(declare-fun inv_main18 (Heap AddrRange AddrRange Int Int) Bool)
(declare-fun inv_main22 (Heap AddrRange AddrRange Int Int) Bool)
(declare-fun inv_main5 (Heap AddrRange AddrRange Int) Bool)
(declare-fun inv_main7 (Heap AddrRange AddrRange Int) Bool)
(assert (forall ((var0 AddrRange) (var1 AddrRange) (var2 Int) (var3 Heap) (var4 AddrRange) (var5 Int) (var6 Heap) (var7 Heap)) (or (not (and (and (= var7 emptyHeap) (and (= var6 (newBatchHeap (batchAlloc emptyHeap (O_Int var5) 100000))) (= var4 (newAddrRange (batchAlloc emptyHeap (O_Int var5) 100000))))) (and (and (= var3 (newBatchHeap (batchAlloc emptyHeap (O_Int var2) 100000))) (= var1 var4)) (= var0 (newAddrRange (batchAlloc emptyHeap (O_Int var2) 100000)))))) (inv_main5 var3 var1 var0 0))))
(assert (forall ((var0 Int) (var1 AddrRange) (var2 AddrRange) (var3 Heap) (var4 Int) (var5 AddrRange) (var6 AddrRange) (var7 Heap)) (or (not (and (inv_main7 var7 var6 var5 var4) (and (and (is-O_Int (read var7 (nthAddrRange var6 var4))) (is-O_Int (read var7 (nthAddrRange var6 var4)))) (and (and (and (= var3 (write var7 (nthAddrRange var6 var4) (O_Int 42))) (= var2 var6)) (= var1 var5)) (= var0 var4))))) (inv_main5 var3 var2 var1 (+ var0 1)))))
(assert (forall ((var0 AddrRange) (var1 AddrRange) (var2 Heap) (var3 Int) (var4 Int) (var5 Int) (var6 AddrRange) (var7 AddrRange) (var8 Heap)) (or (not (and (inv_main18 var8 var7 var6 var5 var4) (and (<= 0 (+ (+ 100000 (* (- 1) (+ var3 1))) (- 1))) (and (and (is-O_Int (read var8 (nthAddrRange var6 var5))) (is-O_Int (read var8 (nthAddrRange var6 var5)))) (and (and (and (= var2 (write var8 (nthAddrRange var6 var5) (O_Int (+ var4 var5)))) (= var1 var7)) (= var0 var6)) (= var3 var5)))))) (inv_main16 var2 var1 var0 (+ var3 1)))))
(assert (forall ((var0 AddrRange) (var1 AddrRange) (var2 Heap) (var3 Int) (var4 Int) (var5 Int) (var6 AddrRange) (var7 AddrRange) (var8 Heap)) (or (not (and (inv_main13 var8 var7 var6 var5 var4) (and (not (<= 0 (+ (+ 100000 (* (- 1) (+ var3 1))) (- 1)))) (and (and (is-O_Int (read var8 (nthAddrRange var6 var5))) (is-O_Int (read var8 (nthAddrRange var6 var5)))) (and (and (and (= var2 (write var8 (nthAddrRange var6 var5) (O_Int var4))) (= var1 var7)) (= var0 var6)) (= var3 var5)))))) (inv_main16 var2 var1 var0 0))))
(assert (forall ((var0 Int) (var1 Int) (var2 AddrRange) (var3 AddrRange) (var4 Heap)) (or (not (and (inv_main22 var4 var3 var2 var1 var0) (and (<= 0 (+ (+ 100000 (* (- 1) (+ var0 1))) (- 1))) (is-O_Int (read var4 (nthAddrRange var2 var0)))))) (inv_main22 var4 var3 var2 var1 (+ var0 1)))))
(assert (forall ((var0 AddrRange) (var1 AddrRange) (var2 Heap) (var3 Int) (var4 Int) (var5 Int) (var6 AddrRange) (var7 AddrRange) (var8 Heap)) (or (not (and (inv_main18 var8 var7 var6 var5 var4) (and (not (<= 0 (+ (+ 100000 (* (- 1) (+ var3 1))) (- 1)))) (and (and (is-O_Int (read var8 (nthAddrRange var6 var5))) (is-O_Int (read var8 (nthAddrRange var6 var5)))) (and (and (and (= var2 (write var8 (nthAddrRange var6 var5) (O_Int (+ var4 var5)))) (= var1 var7)) (= var0 var6)) (= var3 var5)))))) (inv_main22 var2 var1 var0 (+ var3 1) 0))))
(assert (forall ((var0 Int) (var1 AddrRange) (var2 AddrRange) (var3 Heap)) (or (not (and (inv_main5 var3 var2 var1 var0) (not (<= 0 (+ (+ 100000 (* (- 1) var0)) (- 1)))))) (inv_main11 var3 var2 var1 0))))
(assert (forall ((var0 AddrRange) (var1 AddrRange) (var2 Heap) (var3 Int) (var4 Int) (var5 Int) (var6 AddrRange) (var7 AddrRange) (var8 Heap)) (or (not (and (inv_main13 var8 var7 var6 var5 var4) (and (<= 0 (+ (+ 100000 (* (- 1) (+ var3 1))) (- 1))) (and (and (is-O_Int (read var8 (nthAddrRange var6 var5))) (is-O_Int (read var8 (nthAddrRange var6 var5)))) (and (and (and (= var2 (write var8 (nthAddrRange var6 var5) (O_Int var4))) (= var1 var7)) (= var0 var6)) (= var3 var5)))))) (inv_main11 var2 var1 var0 (+ var3 1)))))
(assert (forall ((var0 Int) (var1 AddrRange) (var2 AddrRange) (var3 Heap)) (or (not (and (inv_main11 var3 var2 var1 var0) (is-O_Int (read var3 (nthAddrRange var2 var0))))) (inv_main13 var3 var2 var1 var0 (getInt (read var3 (nthAddrRange var2 var0)))))))
(assert (forall ((var0 Int) (var1 AddrRange) (var2 AddrRange) (var3 Heap)) (or (not (and (inv_main5 var3 var2 var1 var0) (<= 0 (+ (+ 100000 (* (- 1) var0)) (- 1))))) (inv_main7 var3 var2 var1 var0))))
(assert (forall ((var0 Int) (var1 AddrRange) (var2 AddrRange) (var3 Heap)) (or (not (and (inv_main16 var3 var2 var1 var0) (is-O_Int (read var3 (nthAddrRange var1 var0))))) (inv_main18 var3 var2 var1 var0 (getInt (read var3 (nthAddrRange var1 var0)))))))
(assert (forall ((var0 Int) (var1 AddrRange) (var2 AddrRange) (var3 Heap)) (not (and (inv_main7 var3 var2 var1 var0) (not (is-O_Int (read var3 (nthAddrRange var2 var0))))))))
(assert (forall ((var0 Int) (var1 AddrRange) (var2 AddrRange) (var3 Heap)) (not (and (inv_main7 var3 var2 var1 var0) (and (is-O_Int (read var3 (nthAddrRange var2 var0))) (not (within var2 (nthAddrRange var2 var0))))))))
(assert (forall ((var0 Int) (var1 AddrRange) (var2 AddrRange) (var3 Heap)) (not (and (inv_main7 var3 var2 var1 var0) (and (is-O_Int (read var3 (nthAddrRange var2 var0))) (not (is-O_Int (read var3 (nthAddrRange var2 var0)))))))))
(assert (forall ((var0 Int) (var1 AddrRange) (var2 AddrRange) (var3 Heap)) (not (and (inv_main11 var3 var2 var1 var0) (not (is-O_Int (read var3 (nthAddrRange var2 var0))))))))
(assert (forall ((var0 Int) (var1 AddrRange) (var2 AddrRange) (var3 Heap)) (not (and (inv_main11 var3 var2 var1 var0) (and (is-O_Int (read var3 (nthAddrRange var2 var0))) (not (within var2 (nthAddrRange var2 var0))))))))
(assert (forall ((var0 Int) (var1 Int) (var2 AddrRange) (var3 AddrRange) (var4 Heap)) (not (and (inv_main13 var4 var3 var2 var1 var0) (not (is-O_Int (read var4 (nthAddrRange var2 var1))))))))
(assert (forall ((var0 Int) (var1 Int) (var2 AddrRange) (var3 AddrRange) (var4 Heap)) (not (and (inv_main13 var4 var3 var2 var1 var0) (and (is-O_Int (read var4 (nthAddrRange var2 var1))) (not (within var2 (nthAddrRange var2 var1))))))))
(assert (forall ((var0 Int) (var1 Int) (var2 AddrRange) (var3 AddrRange) (var4 Heap)) (not (and (inv_main13 var4 var3 var2 var1 var0) (and (is-O_Int (read var4 (nthAddrRange var2 var1))) (not (is-O_Int (read var4 (nthAddrRange var2 var1)))))))))
(assert (forall ((var0 Int) (var1 AddrRange) (var2 AddrRange) (var3 Heap)) (not (and (inv_main16 var3 var2 var1 var0) (not (is-O_Int (read var3 (nthAddrRange var1 var0))))))))
(assert (forall ((var0 Int) (var1 AddrRange) (var2 AddrRange) (var3 Heap)) (not (and (inv_main16 var3 var2 var1 var0) (and (is-O_Int (read var3 (nthAddrRange var1 var0))) (not (within var1 (nthAddrRange var1 var0))))))))
(assert (forall ((var0 Int) (var1 Int) (var2 AddrRange) (var3 AddrRange) (var4 Heap)) (not (and (inv_main18 var4 var3 var2 var1 var0) (not (is-O_Int (read var4 (nthAddrRange var2 var1))))))))
(assert (forall ((var0 Int) (var1 Int) (var2 AddrRange) (var3 AddrRange) (var4 Heap)) (not (and (inv_main18 var4 var3 var2 var1 var0) (and (is-O_Int (read var4 (nthAddrRange var2 var1))) (not (within var2 (nthAddrRange var2 var1))))))))
(assert (forall ((var0 Int) (var1 Int) (var2 AddrRange) (var3 AddrRange) (var4 Heap)) (not (and (inv_main18 var4 var3 var2 var1 var0) (and (is-O_Int (read var4 (nthAddrRange var2 var1))) (not (is-O_Int (read var4 (nthAddrRange var2 var1)))))))))
(assert (forall ((var0 Int) (var1 Int) (var2 AddrRange) (var3 AddrRange) (var4 Heap)) (not (and (inv_main22 var4 var3 var2 var1 var0) (not (is-O_Int (read var4 (nthAddrRange var2 var0))))))))
(assert (forall ((var0 Int) (var1 Int) (var2 AddrRange) (var3 AddrRange) (var4 Heap)) (not (and (inv_main22 var4 var3 var2 var1 var0) (not (within var2 (nthAddrRange var2 var0)))))))
(assert (forall ((var0 Int) (var1 Int) (var2 AddrRange) (var3 AddrRange) (var4 Heap)) (not (and (inv_main22 var4 var3 var2 var1 var0) (not (is-O_Int (read var4 (nthAddrRange var2 var0))))))))
(assert (forall ((var0 Int) (var1 Int) (var2 AddrRange) (var3 AddrRange) (var4 Heap)) (not (and (inv_main22 var4 var3 var2 var1 var0) (and (is-O_Int (read var4 (nthAddrRange var2 var0))) (not (within var2 (nthAddrRange var2 var0))))))))
(assert (forall ((var0 Int) (var1 Int) (var2 AddrRange) (var3 AddrRange) (var4 Heap)) (not (and (inv_main22 var4 var3 var2 var1 var0) (and (is-O_Int (read var4 (nthAddrRange var2 var0))) (not (= (getInt (read var4 (nthAddrRange var2 var0))) (+ 42 var0))))))))
(check-sat)
